NAME: line_37_70
TYPE: TSP
COMMENT: srandom_37_70
DIMENSION: 37
EDGE_WEIGHT_TYPE: EUC_2D
NODE_COORD_SECTION
1 4484 136
2 4450 4511
3 525 1153
4 3697 3966
5 2343 2620
6 2205 1322
7 4381 3682
8 1969 1367
9 1326 918
10 2411 4124
11 2933 1769
12 1295 3691
13 81 1044
14 1512 1356
15 2439 4463
16 3401 1710
17 3260 145
18 3733 1547
19 242 1306
20 3907 2589
21 1508 3195
22 2759 3614
23 3449 303
24 4917 722
25 1690 2426
26 2698 486
27 1837 4549
28 3154 3760
29 2956 18
30 4671 2466
31 2343 2064
32 3809 993
33 1408 2483
34 4591 3563
35 630 3732
36 3484 1891
37 4308 1996
